22
17
6
6 12 9 8 10 21 2 14 19 5 18 4 13 3 15 20 7 17 11 0 1 16
3 1 8
16 8 9 18 15 5 19 6 14
2 11 0 1 6 16
4 7 0 6 20 19 21 12 18 16 8 5 1
14 10 5 6 1 4 17 2 0 13 12 11 7 16 15 20 21 19 9
12 8 17 3 19 9 18 7 20 16 21 15 6 5 0 13 11 2 14
10 8 2 17 12 18 15 7 13 16 0 21 14 6 4 3 19 1
13 8 6 4 3 15 12 20 16 9 10
21 13 19 17 6 2 5 20 12 1 15 8 16 3 14 9
6 1 5 18 21 15 16 8 9 2 4 20 3 19 14 0 7 17 13 11 10 12
2 0 16 11 13
7 18 0 11 2 9 15 5 19 10 6 14 17
14 5 19 12 10 3 21 6 17 13 2 15 7 20
8 20 10 21 2 16 5 6 11 15
7 15 1 12 10 17 0 14 8 5 13 16 19
